NAME: ./prFile/tspFile/tsp_file61.tsp
COMMENT: TSP file generated by Python
TYPE: TSP
DIMENSION: 40
EDGE_WEIGHT_TYPE: EUC_2D
NODE_COORD_SECTION
1 37 35
2 53 72
3 18 56
4 56 25
5 25 73
6 22 100
7 65 66
8 32 81
9 7 17
10 99 57
11 10 76
12 52 93
13 12 93
14 34 30
15 67 11
16 3 72
17 19 18
18 16 2
19 19 73
20 16 49
21 57 79
22 80 43
23 95 76
24 48 61
25 33 61
26 71 79
27 62 82
28 55 67
29 22 83
30 79 15
31 96 98
32 86 30
33 2 92
34 35 67
35 12 47
36 6 9
37 74 62
38 62 19
39 52 95
40 57 86
EOF
